Version identifier: 12.10.0.0 | 2019-11-26 | 843d4de
CPXPARAM_WorkMem                                 16384
CPXPARAM_MIP_Limits_TreeMemory                   24576
Tried aggregator 2 times.
Aggregator did 60 substitutions.
Reduced MIP has 264 rows, 320 columns, and 1216 nonzeros.
Reduced MIP has 320 binaries, 0 generals, 0 SOSs, and 0 indicators.
Presolve time = 0,00 sec. (1,17 ticks)
Found incumbent of value 816,000000 after 0,00 sec. (1,92 ticks)
Probing time = 0,00 sec. (0,45 ticks)
Tried aggregator 1 time.
Detecting symmetries...
MIP Presolve eliminated 64 rows and 0 columns.
MIP Presolve added 128 rows and 0 columns.
Reduced MIP has 328 rows, 320 columns, and 1280 nonzeros.
Reduced MIP has 320 binaries, 0 generals, 0 SOSs, and 0 indicators.
Presolve time = 0,00 sec. (1,48 ticks)
Probing time = 0,00 sec. (0,43 ticks)
Clique table members: 836.
MIP emphasis: balance optimality and feasibility.
MIP search method: dynamic search.
Parallel mode: deterministic, using up to 16 threads.
Root relaxation solution time = 0,00 sec. (1,48 ticks)

        Nodes                                         Cuts/
   Node  Left     Objective  IInf  Best Integer    Best Bound    ItCnt     Gap

*     0+    0                          816,0000        0,0000           100,00%
*     0+    0                          470,0000        0,0000           100,00%
*     0+    0                          453,0000        0,0000           100,00%
      0     0      204,0000   225      453,0000      204,0000      143   54,97%
      0     0      204,0000   225      453,0000     Cuts: 146      198   54,97%
      0     0      204,0000   225      453,0000     Cuts: 182      309   54,97%
      0     0      204,0000   225      453,0000     Cuts: 182      401   54,97%
*     0+    0                          451,0000      204,0000            54,77%
*     0+    0                          397,0000      204,0000            48,61%
      0     2      204,0000   298      397,0000      204,6570      401   48,45%
Elapsed time = 0,12 sec. (70,10 ticks, tree = 0,02 MB, solutions = 5)

Performing restart 1

Repeating presolve.
Tried aggregator 1 time.
Reduced MIP has 328 rows, 320 columns, and 1280 nonzeros.
Reduced MIP has 320 binaries, 0 generals, 0 SOSs, and 0 indicators.
Presolve time = 0,00 sec. (0,77 ticks)
Tried aggregator 1 time.
Reduced MIP has 328 rows, 320 columns, and 1280 nonzeros.
Reduced MIP has 320 binaries, 0 generals, 0 SOSs, and 0 indicators.
Presolve time = 0,00 sec. (1,02 ticks)
Represolve time = 0,02 sec. (6,50 ticks)
*  4898+    0                          393,0000      288,3495            26,63%
   4898     0      207,4457   240      393,0000      Cuts: 17    92451   26,63%
   4898     0      209,9985   240      393,0000      Fract: 5    92528   26,63%
   4898     0      211,0216   240      393,0000      Fract: 5    92590   26,63%
   4898     0      212,4083   240      393,0000      Fract: 4    92631   26,63%
   4898     2      212,4083   318      393,0000      288,3495    92631   26,63%
   4916    10      285,9881   224      393,0000      288,3495    94250   26,63%
   6002   692      268,4719   220      393,0000      288,3495   144321   26,63%
   7003  1734      347,5080   246      393,0000      288,3495   198270   26,63%
   8178  2438      385,0000    83      393,0000      288,3495   233324   26,63%
   9346  3617      328,1034   201      393,0000      288,3495   291149   26,63%
  10968  4852      294,2141   280      393,0000      288,3495   342541   26,63%

Performing restart 2

Repeating presolve.
Tried aggregator 1 time.
Reduced MIP has 328 rows, 320 columns, and 1280 nonzeros.
Reduced MIP has 320 binaries, 0 generals, 0 SOSs, and 0 indicators.
Presolve time = 0,00 sec. (0,77 ticks)
Tried aggregator 1 time.
Reduced MIP has 328 rows, 320 columns, and 1280 nonzeros.
Reduced MIP has 320 binaries, 0 generals, 0 SOSs, and 0 indicators.
Presolve time = 0,00 sec. (1,02 ticks)
Represolve time = 0,03 sec. (16,83 ticks)
  11180     0      215,0930   319      393,0000       Cuts: 4   371201   26,63%
  11180     0      218,5297   319      393,0000       Cuts: 6   371284   26,63%
  11180     0      220,6656   319      393,0000       Cuts: 8   371352   26,63%
  11180     0      221,4444   319      393,0000       Cuts: 6   371422   26,63%
  11180     0      222,0801   319      393,0000       Cuts: 7   371465   26,63%
  11180     0      222,8003   319      393,0000      Fract: 7   371562   26,63%
  11180     2      222,8003   319      393,0000      288,3495   371562   26,63%
  12731   998      302,0233   190      393,0000      288,3495   418585   26,63%
  22976  7794      374,8763   147      393,0000      336,5906   699531   14,35%
Elapsed time = 4,19 sec. (3633,60 ticks, tree = 25,10 MB, solutions = 6)
  33318 12832        cutoff            393,0000      353,0743   994394   10,16%
  42012 13990        cutoff            393,0000      364,3434  1282951    7,29%
  50165  7811        cutoff            393,0000      379,7769  1549038    3,36%

Clique cuts applied:  53
Cover cuts applied:  554
Mixed integer rounding cuts applied:  21
Zero-half cuts applied:  4
Lift and project cuts applied:  3
Gomory fractional cuts applied:  32

Root node processing (before b&c):
  Real time             =    0,12 sec. (69,92 ticks)
Parallel b&c, 16 threads:
  Real time             =    8,87 sec. (6849,35 ticks)
  Sync time (average)   =    2,39 sec.
  Wait time (average)   =    0,01 sec.
                          ------------
Total (root+branch&cut) =    8,99 sec. (6919,28 ticks)
